num_tests = 20;
num_machines = 10;
max_time = 8101;
num_resources =3;

duration = [15, 19, 173, 255, 263, 266, 272, 328, 364, 364, 422, 424, 427, 435, 472, 555, 655, 672, 742, 778];
required_resources = [{}, {}, {}, {}, {}, {}, {}, {}, {}, {}, {2, 3}, {}, {1, 2, 3}, {}, {3}, {1, 2, 3}, {}, {}, {}, {}];
available_machines = [{1, 2, 3, 4, 5, 6, 7, 8, 9, 10}, {1, 2, 3, 4, 5, 6, 7, 8, 9, 10}, {1, 2, 3, 4, 5, 6, 7, 8, 9, 10}, {1, 2, 3, 4, 5, 6, 7, 8, 9, 10}, {1, 2, 3, 4, 5, 6, 7, 8, 9, 10}, {1, 2, 3, 4, 5, 6, 7, 8, 9, 10}, {4}, {1, 2, 3, 4, 5, 6, 7, 8, 9, 10}, {8, 3}, {1, 2, 3, 4, 5, 6, 7, 8, 9, 10}, {1, 2, 3, 4, 5, 6, 7, 8, 9, 10}, {1, 2, 3, 4, 5, 6, 7, 8, 9, 10}, {1, 2, 3, 4, 5, 6, 7, 8, 9, 10}, {1, 2, 3, 4, 5, 6, 7, 8, 9, 10}, {1, 2, 3, 4, 5, 6, 7, 8, 9, 10}, {1, 2, 3, 4, 5, 6, 7, 8, 9, 10}, {4, 7}, {1, 2, 3, 4, 5, 6, 7, 8, 9, 10}, {1, 2, 3, 4, 5, 6, 7, 8, 9, 10}, {1, 2, 3, 4, 5, 6, 7, 8, 9, 10}];
